b -1
b -7
b -8
b -9
b -10
b -11
b 22
b -32
b -33
b -38
b -39
b -49
b 50
b -59
b -60
b -61
b -69
b 70
b 71
b -79
b 4
b 5
b 6
b 19
b 20
b 21
b 24
b -25
b -26
b -28
b -30
b 31
b -35
b -36
b 46
b -47
b 48
b 54
b 56
b 58
b 66
b 68
b 76
b 78
b 0
s SATISFIABLE
